datasets/2-dimensional/CL_08_25_02.vbp
2
150 150 
25
27 90 30
88 22 72
79 32 4
43 68 88
53 63 54
45 70 64
65 46 90
23 95 26
97 19 94
91 25 28
77 38 72
73 39 49
42 75 54
56 62 19
53 60 28
77 37 61
40 77 84
38 72 23
38 78 67
28 83 53
28 85 54
82 32 16
21 89 9
23 88 54
52 65 77
