datasets/2-dimensional-benchmark/CL_08_25_02.txt
150 150 
0 30 27 90 
1 72 88 22 
2 4 79 32 
3 88 43 68 
4 54 53 63 
5 64 45 70 
6 90 65 46 
7 26 23 95 
8 94 97 19 
9 28 91 25 
10 72 77 38 
11 49 73 39 
12 54 42 75 
13 19 56 62 
14 28 53 60 
15 61 77 37 
16 84 40 77 
17 23 38 72 
18 67 38 78 
19 53 28 83 
20 54 28 85 
21 16 82 32 
22 9 21 89 
23 54 23 88 
24 77 52 65 
